NAME : pairopt.-193759.tour
COMMENT : Length = -193759
COMMENT : Found by LKH-3 [Keld Helsgaun] Fri Oct 13 14:51:29 2023
TYPE : TOUR
DIMENSION : 19
TOUR_SECTION
1
2
16
5
7
12
15
19
3
6
8
9
13
11
14
18
17
4
10
-1
EOF
